;; SMT/Z3 Verification for MLA Compression Optimization
;; Based on proof/VERIFIED_final.v: mla_saves_memory theorem

(set-logic QF_NIA)
(set-info :source |Ollama MLA Compression Verification|)

;; Function definitions
(declare-fun mla_compression (Int) Int)
(declare-fun original_kv_size (Int) Int)
(declare-fun compression_savings (Int) Int)

;; MLA compression: kv_size / 28
(assert (forall ((kv_size Int))
  (= (mla_compression kv_size)
     (div kv_size 28))))

;; Original size is unchanged
(assert (forall ((kv_size Int))
  (= (original_kv_size kv_size) kv_size)))

;; Compression savings calculation
(assert (forall ((kv_size Int))
  (= (compression_savings kv_size)
     (- (original_kv_size kv_size) (mla_compression kv_size)))))

;; Core theorem: For kv_size >= 28, compressed < original
(assert (forall ((kv_size Int))
  (=> (>= kv_size 28)
      (< (mla_compression kv_size) (original_kv_size kv_size)))))

;; Compression ratio should be approximately 1/28
(declare-fun compression_ratio (Int) Real)
(assert (forall ((kv_size Int))
  (=> (> kv_size 0)
      (= (compression_ratio kv_size)
         (/ (to_real (mla_compression kv_size)) (to_real kv_size))))))

;; For reasonable sizes, compression ratio should be close to 1/28
(assert (forall ((kv_size Int))
  (=> (and (>= kv_size 28) (<= kv_size 100000))
      (and (<= (compression_ratio kv_size) (/ 1.0 27.0))  ;; Upper bound
           (>= (compression_ratio kv_size) (/ 1.0 29.0)))))) ;; Lower bound

;; Specific test cases from implementation
(declare-const kv_28 Int)
(declare-const kv_280 Int)
(declare-const kv_1500 Int)
(declare-const kv_2800 Int)

(assert (= kv_28 28))
(assert (= kv_280 280))
(assert (= kv_1500 1500))
(assert (= kv_2800 2800))

;; Expected compression results
(assert (= (mla_compression kv_28) 1))    ;; 28/28 = 1
(assert (= (mla_compression kv_280) 10))  ;; 280/28 = 10
(assert (= (mla_compression kv_1500) 53)) ;; 1500/28 = 53
(assert (= (mla_compression kv_2800) 100)) ;; 2800/28 = 100

;; Compression efficiency for realistic workloads
(declare-fun compression_efficiency (Int) Real)
(assert (forall ((kv_size Int))
  (=> (> kv_size 0)
      (= (compression_efficiency kv_size)
         (/ (to_real (compression_savings kv_size)) (to_real kv_size))))))

;; For large KV caches, efficiency should be very high
(assert (forall ((kv_size Int))
  (=> (>= kv_size 1000)
      (>= (compression_efficiency kv_size) 0.95)))) ;; At least 95% savings

;; Monotonicity property: larger inputs yield larger outputs
(assert (forall ((kv1 Int) (kv2 Int))
  (=> (and (>= kv1 28) (>= kv2 28) (< kv1 kv2))
      (<= (mla_compression kv1) (mla_compression kv2)))))

;; Stability property: small changes in input yield small changes in output
(assert (forall ((kv_size Int))
  (=> (and (>= kv_size 56) (<= kv_size 10000))
      (= (mla_compression (+ kv_size 1))
         (mla_compression kv_size))))) ;; Due to integer division

;; Check satisfiability
(check-sat)
(get-model)

;; Extract verification results
(echo "MLA compression for 28 units:")
(eval (mla_compression kv_28))
(echo "MLA compression for 1500 units:")
(eval (mla_compression kv_1500))
(echo "Compression efficiency for 1500 units:")
(eval (compression_efficiency kv_1500))
(echo "Compression ratio for 2800 units:")
(eval (compression_ratio kv_2800))